1143.0 13226.0 3109.0 
1143.0 13226.0 3109.0 
1131.0 13807.0 3765.0 
1121.0 14010.0 3858.0 
1184.0 13409.0 3043.0 
1271.0 13257.0 2798.0 
1131.0 14029.0 3566.0 
1190.0 13123.0 2909.0 
1143.0 13228.0 3049.0 
1238.0 13265.0 2787.0 
1271.0 13257.0 2798.0 
1138.0 13527.0 3043.0 
1216.0 13225.0 2875.0 
1189.0 13245.0 3044.0 
1141.0 13479.0 3190.0 
1177.0 13484.0 3016.0 
1122.0 14003.0 3861.0 
1211.0 13289.0 2861.0 
1122.0 14003.0 3861.0 
1198.0 13117.0 2996.0 
1238.0 13265.0 2787.0 
1121.0 14010.0 3858.0 
1131.0 13879.0 3604.0 
1125.0 14054.0 3765.0 
1126.0 13945.0 3874.0 
1141.0 13481.0 3130.0 
1228.0 13230.0 2802.0 
1196.0 13255.0 2875.0 
1134.0 13744.0 3763.0 
